array [1..2] of int: X_INTRODUCED_1_ = [1,-1];
var {144,344}: Vg21:: output_var;
var {232,243,244}: Vg22:: output_var;
var {144,344}: Vg23:: output_var;
var {232,233,243,244}: Vp1:: output_var;
var {232,233,243,244}: Vp2:: output_var;
var {143,232,233,243}: Vp3:: output_var;
var {143,232,233,243,244}: Vp4:: output_var;
var bool: X_INTRODUCED_2_ ::var_is_introduced :: is_defined_var;
var bool: X_INTRODUCED_3_ ::var_is_introduced :: is_defined_var;
var bool: X_INTRODUCED_4_ ::var_is_introduced :: is_defined_var;
var bool: X_INTRODUCED_5_ ::var_is_introduced :: is_defined_var;
var 1..3: X_INTRODUCED_8_ ::var_is_introduced :: is_defined_var;
var bool: X_INTRODUCED_9_ ::var_is_introduced :: is_defined_var;
var 23..24: X_INTRODUCED_10_ ::var_is_introduced :: is_defined_var;
var 3..4: X_INTRODUCED_11_ ::var_is_introduced ;
var {14,34}: X_INTRODUCED_12_ ::var_is_introduced :: is_defined_var;
var 3..4: X_INTRODUCED_13_ ::var_is_introduced ;
var bool: X_INTRODUCED_14_ ::var_is_introduced :: is_defined_var;
var 2..4: X_INTRODUCED_15_ ::var_is_introduced ;
var 2..4: X_INTRODUCED_16_ ::var_is_introduced ;
var bool: X_INTRODUCED_18_ ::var_is_introduced :: is_defined_var;
var 1..3: X_INTRODUCED_19_ ::var_is_introduced :: is_defined_var;
var bool: X_INTRODUCED_20_ ::var_is_introduced :: is_defined_var;
var {14,34}: X_INTRODUCED_21_ ::var_is_introduced :: is_defined_var;
var bool: X_INTRODUCED_23_ ::var_is_introduced :: is_defined_var;
var bool: X_INTRODUCED_26_ ::var_is_introduced :: is_defined_var;
var bool: X_INTRODUCED_27_ ::var_is_introduced :: is_defined_var;
var bool: X_INTRODUCED_32_ ::var_is_introduced :: is_defined_var;
var bool: X_INTRODUCED_33_ ::var_is_introduced :: is_defined_var;
var bool: X_INTRODUCED_35_ ::var_is_introduced :: is_defined_var;
var bool: X_INTRODUCED_36_ ::var_is_introduced :: is_defined_var;
var bool: X_INTRODUCED_37_ ::var_is_introduced :: is_defined_var;
var bool: X_INTRODUCED_45_ ::var_is_introduced :: is_defined_var;
var bool: X_INTRODUCED_47_ ::var_is_introduced :: is_defined_var;
var bool: X_INTRODUCED_48_ ::var_is_introduced :: is_defined_var;
var 23..24: X_INTRODUCED_51_ ::var_is_introduced :: is_defined_var;
var 3..4: X_INTRODUCED_52_ ::var_is_introduced ;
var 23..24: X_INTRODUCED_53_ ::var_is_introduced :: is_defined_var;
var 3..4: X_INTRODUCED_54_ ::var_is_introduced ;
var bool: X_INTRODUCED_55_ ::var_is_introduced :: is_defined_var;
var 2..4: X_INTRODUCED_56_ ::var_is_introduced ;
var 2..4: X_INTRODUCED_57_ ::var_is_introduced ;
var bool: X_INTRODUCED_59_ ::var_is_introduced :: is_defined_var;
var 1..2: X_INTRODUCED_60_ ::var_is_introduced :: is_defined_var;
var bool: X_INTRODUCED_61_ ::var_is_introduced :: is_defined_var;
var {14,23,24}: X_INTRODUCED_62_ ::var_is_introduced :: is_defined_var;
var 3..4: X_INTRODUCED_63_ ::var_is_introduced ;
var bool: X_INTRODUCED_65_ ::var_is_introduced :: is_defined_var;
var 2..4: X_INTRODUCED_66_ ::var_is_introduced ;
var bool: X_INTRODUCED_67_ ::var_is_introduced :: is_defined_var;
var 1..2: X_INTRODUCED_68_ ::var_is_introduced :: is_defined_var;
var bool: X_INTRODUCED_69_ ::var_is_introduced :: is_defined_var;
var {14,23,24}: X_INTRODUCED_70_ ::var_is_introduced :: is_defined_var;
var 3..4: X_INTRODUCED_71_ ::var_is_introduced ;
var bool: X_INTRODUCED_72_ ::var_is_introduced :: is_defined_var;
var 2..4: X_INTRODUCED_73_ ::var_is_introduced ;
var bool: X_INTRODUCED_74_ ::var_is_introduced :: is_defined_var;
var bool: X_INTRODUCED_75_ ::var_is_introduced :: is_defined_var;
var bool: X_INTRODUCED_77_ ::var_is_introduced :: is_defined_var;
var bool: X_INTRODUCED_78_ ::var_is_introduced :: is_defined_var;
var bool: X_INTRODUCED_79_ ::var_is_introduced :: is_defined_var;
var bool: X_INTRODUCED_80_ ::var_is_introduced :: is_defined_var;
var bool: X_INTRODUCED_81_ ::var_is_introduced :: is_defined_var;
var bool: X_INTRODUCED_82_ ::var_is_introduced :: is_defined_var;
var bool: X_INTRODUCED_84_ ::var_is_introduced :: is_defined_var;
var bool: X_INTRODUCED_85_ ::var_is_introduced :: is_defined_var;
var bool: X_INTRODUCED_86_ ::var_is_introduced :: is_defined_var;
var bool: X_INTRODUCED_87_ ::var_is_introduced :: is_defined_var;
var bool: X_INTRODUCED_88_ ::var_is_introduced :: is_defined_var;
var bool: X_INTRODUCED_89_ ::var_is_introduced :: is_defined_var;
var bool: X_INTRODUCED_90_ ::var_is_introduced :: is_defined_var;
var bool: X_INTRODUCED_91_ ::var_is_introduced :: is_defined_var;
var bool: X_INTRODUCED_92_ ::var_is_introduced :: is_defined_var;
var bool: X_INTRODUCED_93_ ::var_is_introduced :: is_defined_var;
var bool: X_INTRODUCED_94_ ::var_is_introduced :: is_defined_var;
var bool: X_INTRODUCED_95_ ::var_is_introduced :: is_defined_var;
var bool: X_INTRODUCED_96_ ::var_is_introduced :: is_defined_var;
var bool: X_INTRODUCED_97_ ::var_is_introduced :: is_defined_var;
var bool: X_INTRODUCED_98_ ::var_is_introduced :: is_defined_var;
constraint int_lin_ne(X_INTRODUCED_1_,[Vg21,Vg22],0);
constraint int_lin_ne(X_INTRODUCED_1_,[Vg21,Vg23],0);
constraint int_lin_ne(X_INTRODUCED_1_,[Vg21,Vp1],0);
constraint int_lin_ne(X_INTRODUCED_1_,[Vg21,Vp2],0);
constraint int_lin_ne(X_INTRODUCED_1_,[Vg21,Vp3],0);
constraint int_lin_ne(X_INTRODUCED_1_,[Vg21,Vp4],0);
constraint int_lin_ne(X_INTRODUCED_1_,[Vg22,Vg23],0);
constraint int_lin_ne(X_INTRODUCED_1_,[Vg22,Vp1],0);
constraint int_lin_ne(X_INTRODUCED_1_,[Vg22,Vp2],0);
constraint int_lin_ne(X_INTRODUCED_1_,[Vg22,Vp3],0);
constraint int_lin_ne(X_INTRODUCED_1_,[Vg22,Vp4],0);
constraint int_lin_ne(X_INTRODUCED_1_,[Vg23,Vp1],0);
constraint int_lin_ne(X_INTRODUCED_1_,[Vg23,Vp2],0);
constraint int_lin_ne(X_INTRODUCED_1_,[Vg23,Vp3],0);
constraint int_lin_ne(X_INTRODUCED_1_,[Vg23,Vp4],0);
constraint int_lin_ne(X_INTRODUCED_1_,[Vp1,Vp2],0);
constraint int_lin_ne(X_INTRODUCED_1_,[Vp1,Vp3],0);
constraint int_lin_ne(X_INTRODUCED_1_,[Vp1,Vp4],0);
constraint int_lin_ne(X_INTRODUCED_1_,[Vp2,Vp3],0);
constraint int_lin_ne(X_INTRODUCED_1_,[Vp2,Vp4],0);
constraint int_lin_ne(X_INTRODUCED_1_,[Vp3,Vp4],0);
constraint array_bool_or([X_INTRODUCED_5_,X_INTRODUCED_4_,X_INTRODUCED_3_,X_INTRODUCED_2_],true);
constraint int_div(Vg22,100,2);
constraint int_div(Vg21,100,X_INTRODUCED_8_):: defines_var(X_INTRODUCED_8_);
constraint int_div(Vg22,10,X_INTRODUCED_10_):: defines_var(X_INTRODUCED_10_);
constraint int_mod(X_INTRODUCED_10_,10,X_INTRODUCED_11_);
constraint int_div(Vg21,10,X_INTRODUCED_12_):: defines_var(X_INTRODUCED_12_);
constraint int_mod(X_INTRODUCED_12_,10,X_INTRODUCED_13_);
constraint int_mod(Vg22,10,X_INTRODUCED_15_);
constraint int_mod(Vg21,10,X_INTRODUCED_16_);
constraint int_div(Vg23,100,X_INTRODUCED_19_):: defines_var(X_INTRODUCED_19_);
constraint int_div(Vg23,10,X_INTRODUCED_21_):: defines_var(X_INTRODUCED_21_);
constraint int_mod(X_INTRODUCED_21_,10,4);
constraint int_mod(Vg23,10,4);
constraint array_bool_or([X_INTRODUCED_48_,X_INTRODUCED_37_,X_INTRODUCED_27_],true);
constraint int_div(Vp2,100,2);
constraint int_div(Vp1,100,2);
constraint int_div(Vp2,10,X_INTRODUCED_51_):: defines_var(X_INTRODUCED_51_);
constraint int_mod(X_INTRODUCED_51_,10,X_INTRODUCED_52_);
constraint int_div(Vp1,10,X_INTRODUCED_53_):: defines_var(X_INTRODUCED_53_);
constraint int_mod(X_INTRODUCED_53_,10,X_INTRODUCED_54_);
constraint int_mod(Vp2,10,X_INTRODUCED_56_);
constraint int_mod(Vp1,10,X_INTRODUCED_57_);
constraint int_div(Vp3,100,X_INTRODUCED_60_):: defines_var(X_INTRODUCED_60_);
constraint int_div(Vp3,10,X_INTRODUCED_62_):: defines_var(X_INTRODUCED_62_);
constraint int_mod(X_INTRODUCED_62_,10,X_INTRODUCED_63_);
constraint int_mod(Vp3,10,X_INTRODUCED_66_);
constraint int_div(Vp4,100,X_INTRODUCED_68_):: defines_var(X_INTRODUCED_68_);
constraint int_div(Vp4,10,X_INTRODUCED_70_):: defines_var(X_INTRODUCED_70_);
constraint int_mod(X_INTRODUCED_70_,10,X_INTRODUCED_71_);
constraint int_mod(Vp4,10,X_INTRODUCED_73_);
constraint array_bool_or([X_INTRODUCED_98_,X_INTRODUCED_96_,X_INTRODUCED_95_,X_INTRODUCED_92_,X_INTRODUCED_89_,X_INTRODUCED_88_,X_INTRODUCED_85_,X_INTRODUCED_75_],true);
constraint int_eq_reif(Vp1,233,X_INTRODUCED_2_):: defines_var(X_INTRODUCED_2_);
constraint int_eq_reif(Vp2,233,X_INTRODUCED_3_):: defines_var(X_INTRODUCED_3_);
constraint int_eq_reif(Vp3,233,X_INTRODUCED_4_):: defines_var(X_INTRODUCED_4_);
constraint int_eq_reif(Vp4,233,X_INTRODUCED_5_):: defines_var(X_INTRODUCED_5_);
constraint int_eq_reif(X_INTRODUCED_8_,2,X_INTRODUCED_9_):: defines_var(X_INTRODUCED_9_);
constraint int_eq_reif(X_INTRODUCED_11_,X_INTRODUCED_13_,X_INTRODUCED_14_):: defines_var(X_INTRODUCED_14_);
constraint int_lin_eq_reif(X_INTRODUCED_1_,[X_INTRODUCED_15_,X_INTRODUCED_16_],1,X_INTRODUCED_18_):: defines_var(X_INTRODUCED_18_);
constraint int_eq_reif(X_INTRODUCED_19_,X_INTRODUCED_8_,X_INTRODUCED_20_):: defines_var(X_INTRODUCED_20_);
constraint int_eq_reif(X_INTRODUCED_13_,4,X_INTRODUCED_23_):: defines_var(X_INTRODUCED_23_);
constraint int_eq_reif(X_INTRODUCED_16_,2,X_INTRODUCED_26_):: defines_var(X_INTRODUCED_26_);
constraint array_bool_and([X_INTRODUCED_26_,X_INTRODUCED_23_,X_INTRODUCED_20_,X_INTRODUCED_18_,X_INTRODUCED_14_,X_INTRODUCED_9_],X_INTRODUCED_27_):: defines_var(X_INTRODUCED_27_);
constraint int_eq_reif(X_INTRODUCED_8_,3,X_INTRODUCED_32_):: defines_var(X_INTRODUCED_32_);
constraint int_eq_reif(X_INTRODUCED_15_,X_INTRODUCED_16_,X_INTRODUCED_33_):: defines_var(X_INTRODUCED_33_);
constraint int_lin_eq_reif(X_INTRODUCED_1_,[X_INTRODUCED_19_,X_INTRODUCED_8_],-2,X_INTRODUCED_35_):: defines_var(X_INTRODUCED_35_);
constraint int_eq_reif(X_INTRODUCED_16_,4,X_INTRODUCED_36_):: defines_var(X_INTRODUCED_36_);
constraint array_bool_and([X_INTRODUCED_36_,X_INTRODUCED_35_,X_INTRODUCED_33_,X_INTRODUCED_32_,X_INTRODUCED_23_,X_INTRODUCED_14_],X_INTRODUCED_37_):: defines_var(X_INTRODUCED_37_);
constraint int_eq_reif(X_INTRODUCED_8_,1,X_INTRODUCED_45_):: defines_var(X_INTRODUCED_45_);
constraint int_lin_eq_reif(X_INTRODUCED_1_,[X_INTRODUCED_19_,X_INTRODUCED_8_],2,X_INTRODUCED_47_):: defines_var(X_INTRODUCED_47_);
constraint array_bool_and([X_INTRODUCED_47_,X_INTRODUCED_45_,X_INTRODUCED_36_,X_INTRODUCED_33_,X_INTRODUCED_23_,X_INTRODUCED_14_],X_INTRODUCED_48_):: defines_var(X_INTRODUCED_48_);
constraint int_eq_reif(X_INTRODUCED_52_,X_INTRODUCED_54_,X_INTRODUCED_55_):: defines_var(X_INTRODUCED_55_);
constraint int_lin_eq_reif(X_INTRODUCED_1_,[X_INTRODUCED_56_,X_INTRODUCED_57_],-1,X_INTRODUCED_59_):: defines_var(X_INTRODUCED_59_);
constraint int_eq_reif(X_INTRODUCED_60_,2,X_INTRODUCED_61_):: defines_var(X_INTRODUCED_61_);
constraint int_lin_eq_reif(X_INTRODUCED_1_,[X_INTRODUCED_63_,X_INTRODUCED_54_],1,X_INTRODUCED_65_):: defines_var(X_INTRODUCED_65_);
constraint int_lin_eq_reif(X_INTRODUCED_1_,[X_INTRODUCED_66_,X_INTRODUCED_57_],-1,X_INTRODUCED_67_):: defines_var(X_INTRODUCED_67_);
constraint int_eq_reif(X_INTRODUCED_68_,1,X_INTRODUCED_69_):: defines_var(X_INTRODUCED_69_);
constraint int_eq_reif(X_INTRODUCED_71_,X_INTRODUCED_54_,X_INTRODUCED_72_):: defines_var(X_INTRODUCED_72_);
constraint int_eq_reif(X_INTRODUCED_73_,X_INTRODUCED_57_,X_INTRODUCED_74_):: defines_var(X_INTRODUCED_74_);
constraint array_bool_and([X_INTRODUCED_74_,X_INTRODUCED_72_,X_INTRODUCED_69_,X_INTRODUCED_67_,X_INTRODUCED_65_,X_INTRODUCED_61_,X_INTRODUCED_59_,X_INTRODUCED_55_],X_INTRODUCED_75_):: defines_var(X_INTRODUCED_75_);
constraint int_lin_eq_reif(X_INTRODUCED_1_,[X_INTRODUCED_52_,X_INTRODUCED_54_],-1,X_INTRODUCED_77_):: defines_var(X_INTRODUCED_77_);
constraint int_eq_reif(X_INTRODUCED_56_,X_INTRODUCED_57_,X_INTRODUCED_78_):: defines_var(X_INTRODUCED_78_);
constraint int_eq_reif(X_INTRODUCED_60_,1,X_INTRODUCED_79_):: defines_var(X_INTRODUCED_79_);
constraint int_lin_eq_reif(X_INTRODUCED_1_,[X_INTRODUCED_63_,X_INTRODUCED_54_],-1,X_INTRODUCED_80_):: defines_var(X_INTRODUCED_80_);
constraint int_eq_reif(X_INTRODUCED_66_,X_INTRODUCED_57_,X_INTRODUCED_81_):: defines_var(X_INTRODUCED_81_);
constraint int_eq_reif(X_INTRODUCED_68_,2,X_INTRODUCED_82_):: defines_var(X_INTRODUCED_82_);
constraint int_lin_eq_reif(X_INTRODUCED_1_,[X_INTRODUCED_73_,X_INTRODUCED_57_],1,X_INTRODUCED_84_):: defines_var(X_INTRODUCED_84_);
constraint array_bool_and([X_INTRODUCED_84_,X_INTRODUCED_82_,X_INTRODUCED_81_,X_INTRODUCED_80_,X_INTRODUCED_79_,X_INTRODUCED_78_,X_INTRODUCED_77_,X_INTRODUCED_72_],X_INTRODUCED_85_):: defines_var(X_INTRODUCED_85_);
constraint int_lin_eq_reif(X_INTRODUCED_1_,[X_INTRODUCED_56_,X_INTRODUCED_57_],1,X_INTRODUCED_86_):: defines_var(X_INTRODUCED_86_);
constraint int_lin_eq_reif(X_INTRODUCED_1_,[X_INTRODUCED_66_,X_INTRODUCED_57_],1,X_INTRODUCED_87_):: defines_var(X_INTRODUCED_87_);
constraint array_bool_and([X_INTRODUCED_87_,X_INTRODUCED_86_,X_INTRODUCED_80_,X_INTRODUCED_74_,X_INTRODUCED_72_,X_INTRODUCED_69_,X_INTRODUCED_61_,X_INTRODUCED_55_],X_INTRODUCED_88_):: defines_var(X_INTRODUCED_88_);
constraint array_bool_and([X_INTRODUCED_80_,X_INTRODUCED_78_,X_INTRODUCED_77_,X_INTRODUCED_74_,X_INTRODUCED_72_,X_INTRODUCED_69_,X_INTRODUCED_67_,X_INTRODUCED_61_],X_INTRODUCED_89_):: defines_var(X_INTRODUCED_89_);
constraint int_eq_reif(X_INTRODUCED_63_,X_INTRODUCED_54_,X_INTRODUCED_90_):: defines_var(X_INTRODUCED_90_);
constraint int_lin_eq_reif(X_INTRODUCED_1_,[X_INTRODUCED_71_,X_INTRODUCED_54_],1,X_INTRODUCED_91_):: defines_var(X_INTRODUCED_91_);
constraint array_bool_and([X_INTRODUCED_91_,X_INTRODUCED_90_,X_INTRODUCED_87_,X_INTRODUCED_86_,X_INTRODUCED_82_,X_INTRODUCED_79_,X_INTRODUCED_74_,X_INTRODUCED_55_],X_INTRODUCED_92_):: defines_var(X_INTRODUCED_92_);
constraint int_lin_eq_reif(X_INTRODUCED_1_,[X_INTRODUCED_52_,X_INTRODUCED_54_],1,X_INTRODUCED_93_):: defines_var(X_INTRODUCED_93_);
constraint int_lin_eq_reif(X_INTRODUCED_1_,[X_INTRODUCED_73_,X_INTRODUCED_57_],-1,X_INTRODUCED_94_):: defines_var(X_INTRODUCED_94_);
constraint array_bool_and([X_INTRODUCED_94_,X_INTRODUCED_93_,X_INTRODUCED_82_,X_INTRODUCED_81_,X_INTRODUCED_79_,X_INTRODUCED_78_,X_INTRODUCED_72_,X_INTRODUCED_65_],X_INTRODUCED_95_):: defines_var(X_INTRODUCED_95_);
constraint array_bool_and([X_INTRODUCED_93_,X_INTRODUCED_87_,X_INTRODUCED_78_,X_INTRODUCED_74_,X_INTRODUCED_72_,X_INTRODUCED_69_,X_INTRODUCED_65_,X_INTRODUCED_61_],X_INTRODUCED_96_):: defines_var(X_INTRODUCED_96_);
constraint int_lin_eq_reif(X_INTRODUCED_1_,[X_INTRODUCED_71_,X_INTRODUCED_54_],-1,X_INTRODUCED_97_):: defines_var(X_INTRODUCED_97_);
constraint array_bool_and([X_INTRODUCED_97_,X_INTRODUCED_90_,X_INTRODUCED_82_,X_INTRODUCED_79_,X_INTRODUCED_74_,X_INTRODUCED_67_,X_INTRODUCED_59_,X_INTRODUCED_55_],X_INTRODUCED_98_):: defines_var(X_INTRODUCED_98_);
solve  satisfy;
